c Output_time 06.06.2020 18:19:27_+0100 1591463967923669979
c ** Program information **
c program_name                          "DQBRG"
c version                               "0.3.0"
c date                                  "29.3.2020"
c gid_id                                "11f285002dd0387f0ebb216c4fcabf3f1c732df2"
c author                                "Oliver Kullmann"
c url                                   "https://github.com/OKullmann/oklibrary/blob/master/Satisfiability/Transformers/Generators/Random/DQBRG.cpp"
c ** Machine information **
c machine_name                          "csverify"
c bogomips                              7182.86
c ** Compilation information **
c compiler_version                      "g++ 8.3.0"
c compilation_date                      "Apr_21_2020 23:53:44"
c compilation_options                   "--std=c++17 -pedantic -Ofast -DNDEBUG -march=native -fwhole-program -static -fno-finite-math-only"
c NDEBUG                                1
c OPTIMIZE                              1
c ** Parameters **
c command-line                          "./DQBRG" "a200 200" "600" "700*2,3" "" "1959747134094409559,0,1586242306034875609,6,45978" ""
c output                                "DeQuBlRaGe_400_700_3545989440129333271.dqdimacs"
c options                               "filtered,renamed"
c num_quantifier_blocks                 2
c  quantifier_blocks                    1:a1-200 2:e201-400
c  total_na                             200
c  total_ne                             200
c dependency_option                     ignore_given
c   total_possible_dependencies         40000
c   given_prefix_dependencies           40000
c   change_value                        600
c   actual_dependencies                 600
c num_clause-blocks                     1
c  clause-blocks                        700 * {1-400,3,1/2}
c num_e-seeds                           20+5=25
c  e-seeds                              2 0 1 0 0 600 3 400 2 200 0 200 1 700 1 1 2 3 1 2 1959747134094409559 0 1586242306034875609 6 45978
p cnf 258 700
a 1 2 3 4 5 6 7 8 9 10 11 12 13 14 15 16 17 18 19 20 21 22 23 24 25 26 27 28 29 30 31 32 33 34 35 36 37 38 39 40 41 42 43 44 45 46 47 48 49 50 51 52 53 54 55 56 57 58 0
d 59 11 25 0
d 60 5 22 56 0
d 61 0
d 62 13 20 39 0
d 63 46 0
d 64 49 0
d 65 5 0
d 66 58 0
d 67 3 0
d 68 13 14 24 39 41 0
d 69 0
d 70 16 32 41 0
d 71 0
d 72 11 34 0
d 73 13 58 0
d 74 0
d 75 25 0
d 76 46 0
d 77 18 23 38 56 0
d 78 24 48 0
d 79 0
d 80 0
d 81 12 0
d 82 0
d 83 47 0
d 84 10 11 21 0
d 85 0
d 86 25 40 0
d 87 0
d 88 0
d 89 12 23 25 0
d 90 18 0
d 91 0
d 92 15 0
d 93 22 33 0
d 94 57 0
d 95 7 26 0
d 96 1 6 0
d 97 11 0
d 98 50 0
d 99 0
d 100 38 0
d 101 39 47 51 0
d 102 35 0
d 103 6 52 0
d 104 31 0
d 105 22 32 0
d 106 8 0
d 107 50 0
d 108 0
d 109 5 6 0
d 110 43 51 0
d 111 0
d 112 39 49 0
d 113 8 28 0
d 114 0
d 115 28 37 0
d 116 19 0
d 117 13 31 0
d 118 0
d 119 9 52 0
d 120 48 0
d 121 12 14 0
d 122 6 9 39 0
d 123 0
d 124 28 44 46 0
d 125 25 37 0
d 126 51 0
d 127 0
d 128 15 22 0
d 129 23 0
d 130 0
d 131 9 44 54 0
d 132 50 51 0
d 133 25 26 44 46 0
d 134 0
d 135 0
d 136 0
d 137 3 0
d 138 26 0
d 139 11 0
d 140 31 0
d 141 58 0
d 142 30 32 0
d 143 26 38 0
d 144 14 0
d 145 0
d 146 0
d 147 28 0
d 148 47 0
d 149 0
d 150 25 0
d 151 3 0
d 152 0
d 153 0
d 154 55 0
d 155 13 58 0
d 156 28 52 0
d 157 0
d 158 22 0
d 159 13 0
d 160 30 0
d 161 2 29 30 0
d 162 0
d 163 1 0
d 164 2 4 28 0
d 165 24 34 44 0
d 166 9 14 0
d 167 0
d 168 0
d 169 19 0
d 170 0
d 171 0
d 172 24 27 0
d 173 12 0
d 174 20 25 37 57 0
d 175 11 16 23 0
d 176 3 0
d 177 1 0
d 178 8 30 41 56 0
d 179 0
d 180 0
d 181 0
d 182 23 0
d 183 21 0
d 184 19 0
d 185 23 42 0
d 186 15 24 41 50 0
d 187 17 0
d 188 4 20 0
d 189 5 20 0
d 190 30 0
d 191 10 40 48 0
d 192 0
d 193 4 0
d 194 0
d 195 35 0
d 196 0
d 197 58 0
d 198 18 0
d 199 32 0
d 200 0
d 201 11 36 0
d 202 10 0
d 203 0
d 204 3 24 52 57 0
d 205 58 0
d 206 0
d 207 33 0
d 208 52 0
d 209 0
d 210 1 35 52 57 0
d 211 0
d 212 0
d 213 0
d 214 19 0
d 215 0
d 216 0
d 217 0
d 218 7 25 43 0
d 219 3 0
d 220 46 0
d 221 27 42 49 0
d 222 11 0
d 223 20 0
d 224 2 48 0
d 225 8 37 0
d 226 0
d 227 10 54 0
d 228 16 0
d 229 0
d 230 0
d 231 0
d 232 0
d 233 15 24 0
d 234 0
d 235 16 17 25 46 0
d 236 19 55 0
d 237 29 0
d 238 0
d 239 2 15 51 0
d 240 0
d 241 53 0
d 242 45 0
d 243 27 0
d 244 0
d 245 0
d 246 34 50 0
d 247 13 17 0
d 248 26 35 38 0
d 249 0
d 250 0
d 251 0
d 252 0
d 253 35 0
d 254 11 13 0
d 255 10 0
d 256 0
d 257 17 0
d 258 0
58 70 -73 0
56 67 77 0
-66 81 -82 0
74 -76 -84 0
77 -78 88 0
-65 -79 -90 0
69 88 94 0
-76 83 -95 0
-50 60 -98 0
72 83 98 0
66 -70 -100 0
47 67 -101 0
69 84 -101 0
-60 83 -102 0
68 -93 -104 0
91 104 -105 0
-90 94 106 0
-76 -90 107 0
-99 106 -109 0
-43 -73 -110 0
-39 90 -112 0
8 -95 113 0
81 88 -116 0
-89 -94 116 0
70 -111 -117 0
-65 -66 117 0
79 -83 117 0
-63 93 -119 0
64 65 119 0
-86 -97 121 0
-87 110 121 0
-75 92 122 0
69 72 123 0
-89 104 123 0
66 79 -124 0
105 -110 -124 0
109 -123 124 0
90 93 125 0
61 -106 125 0
62 89 126 0
-62 -85 -127 0
96 -109 -127 0
98 100 127 0
-71 -122 -128 0
6 -96 128 0
74 118 128 0
-61 101 131 0
63 -80 132 0
118 119 135 0
101 117 -136 0
-91 98 136 0
-75 100 136 0
-116 122 -138 0
87 -126 -138 0
-90 106 -139 0
-69 127 -139 0
-69 104 139 0
69 104 139 0
65 130 -140 0
-14 121 -142 0
-103 110 -143 0
-38 116 -143 0
7 -95 -144 0
-124 125 -144 0
-59 -140 -144 0
61 -124 -145 0
-119 126 145 0
-72 -118 -146 0
-72 125 146 0
-118 124 -147 0
-86 132 147 0
76 -123 -148 0
66 108 148 0
-9 122 148 0
-78 128 -149 0
-126 -135 -149 0
-65 -83 149 0
109 125 150 0
-67 103 -151 0
106 136 151 0
140 -147 152 0
75 -148 152 0
-123 -125 -154 0
64 -79 154 0
-90 150 154 0
127 152 -155 0
48 -120 -156 0
28 126 -156 0
-87 -132 156 0
72 -143 156 0
-102 144 156 0
78 118 157 0
-92 143 157 0
-102 -137 -158 0
22 89 158 0
-113 123 158 0
-68 128 158 0
-13 -84 159 0
-89 111 159 0
-80 125 -160 0
-104 134 -160 0
-89 -98 160 0
-105 -154 -162 0
60 -129 -163 0
-78 145 -163 0
132 -147 -163 0
-7 95 163 0
-119 160 163 0
82 83 164 0
-2 101 164 0
-4 125 164 0
-148 -157 164 0
79 -150 -165 0
-34 82 165 0
89 -119 165 0
-67 -114 -166 0
-102 -158 -166 0
-157 160 -166 0
74 154 166 0
145 -160 166 0
145 -148 -167 0
102 157 -167 0
156 -163 -167 0
-77 -89 167 0
-94 105 167 0
-86 117 167 0
-126 162 -168 0
-19 -76 -169 0
-86 101 -169 0
-77 -107 -169 0
103 -150 -169 0
59 -162 -169 0
107 -144 170 0
96 148 170 0
-65 -83 -171 0
-137 -149 171 0
156 -157 171 0
127 -169 171 0
-116 154 172 0
-101 -158 172 0
-12 -86 -173 0
92 142 -173 0
72 -106 173 0
-113 125 173 0
-85 -172 173 0
20 85 -174 0
37 121 -174 0
127 150 -174 0
-68 144 174 0
107 115 -175 0
-16 135 -175 0
96 -152 -175 0
-144 -153 -175 0
-120 -162 -175 0
134 -147 175 0
-82 109 -176 0
113 -166 -176 0
-73 -96 176 0
70 -100 176 0
74 108 176 0
75 115 -177 0
-107 -131 177 0
123 177 -178 0
-59 -93 178 0
106 124 178 0
-82 145 178 0
-89 117 -179 0
-157 -170 179 0
-55 154 -180 0
-68 -114 180 0
139 143 180 0
-26 -95 181 0
-69 132 181 0
-114 147 181 0
-118 164 -182 0
132 -180 -182 0
149 -158 182 0
167 180 182 0
-86 118 -183 0
-103 125 -183 0
-62 167 -183 0
128 176 -183 0
106 -125 183 0
-125 137 183 0
66 76 -184 0
135 150 -184 0
-95 155 -184 0
-147 -169 -184 0
135 169 -184 0
-93 -103 184 0
3 67 -185 0
-62 -127 -185 0
110 147 -185 0
87 151 -185 0
-86 -103 185 0
-70 -105 185 0
42 -106 185 0
-166 176 185 0
-63 108 -186 0
62 107 -187 0
14 -166 -187 0
-133 -166 -187 0
4 98 -188 0
-103 -105 -188 0
-84 120 188 0
-20 -186 188 0
-5 -116 -189 0
143 -178 -189 0
-136 183 189 0
158 186 189 0
-123 188 189 0
81 143 -190 0
-88 -162 -190 0
-112 -183 -190 0
95 -114 190 0
-114 -138 190 0
30 -158 190 0
153 182 190 0
125 -188 190 0
-63 -175 -191 0
-75 -182 -191 0
76 175 191 0
40 186 191 0
49 112 -192 0
64 122 -192 0
-90 151 -192 0
-188 190 192 0
-71 123 -193 0
-120 142 -193 0
66 149 -193 0
-92 171 -193 0
161 185 -193 0
4 -145 193 0
91 -98 -194 0
64 132 -194 0
94 -192 -194 0
21 -84 194 0
86 159 194 0
131 190 194 0
-84 -102 -195 0
59 66 195 0
87 -183 195 0
121 145 -196 0
-130 132 196 0
108 -163 196 0
-87 172 196 0
-155 -182 -197 0
127 170 197 0
-74 105 -198 0
62 -108 -198 0
99 122 -198 0
-177 183 -198 0
-142 184 -198 0
18 188 198 0
93 -192 198 0
103 160 -199 0
32 80 199 0
-87 198 199 0
91 109 -200 0
44 124 -200 0
-112 132 -200 0
-75 -167 -200 0
-78 126 -201 0
139 166 -201 0
-148 -182 -201 0
-178 -182 -201 0
87 -183 -201 0
186 -193 -201 0
-64 129 201 0
-87 -166 201 0
-75 -84 -202 0
-80 133 -202 0
68 182 -202 0
126 -188 -202 0
-103 -192 -202 0
-76 161 202 0
-61 -62 -203 0
82 -123 -203 0
-137 -143 -203 0
145 -189 -203 0
-138 195 203 0
3 -62 -204 0
-24 -107 -204 0
-172 188 -204 0
-76 127 204 0
86 144 204 0
-147 -160 204 0
-124 -171 204 0
95 141 -205 0
75 155 -205 0
-79 91 205 0
97 -137 205 0
101 -119 -206 0
86 -130 -206 0
109 -176 -206 0
67 199 -206 0
-65 148 -207 0
-136 150 -207 0
96 -187 -207 0
87 -193 207 0
62 194 207 0
116 -196 207 0
-153 201 207 0
-52 86 -208 0
138 198 -208 0
-153 -207 208 0
103 -141 -209 0
100 172 -209 0
-66 126 209 0
74 -131 209 0
-95 149 209 0
135 167 209 0
122 195 209 0
35 71 -210 0
57 -114 -210 0
-106 118 -210 0
-133 -175 -210 0
-89 -195 -210 0
-148 203 -210 0
-64 157 210 0
69 159 210 0
-59 -161 -211 0
77 170 -211 0
76 -91 211 0
86 132 211 0
-89 119 -212 0
-105 187 -212 0
-41 68 212 0
-23 77 212 0
86 93 212 0
147 -170 212 0
-176 195 212 0
-63 -75 -213 0
-62 -88 -213 0
-106 162 -213 0
-77 -189 -213 0
102 -189 -213 0
-89 -115 213 0
72 -146 213 0
-63 -171 213 0
83 -101 -214 0
-101 181 -214 0
-170 -191 -214 0
-70 -208 -214 0
106 174 214 0
-162 192 214 0
74 109 -215 0
-93 165 -215 0
88 182 -215 0
62 -195 -215 0
-81 128 215 0
152 -165 215 0
-126 -168 215 0
93 109 -216 0
-75 -144 216 0
-36 201 216 0
-118 -202 216 0
-92 -203 216 0
-122 142 -217 0
135 157 -217 0
103 175 217 0
92 176 217 0
-99 105 218 0
-119 -142 218 0
78 -145 218 0
132 169 218 0
-25 -176 218 0
174 -187 218 0
-181 -203 218 0
141 148 -219 0
-83 176 -219 0
136 -199 -219 0
-106 127 219 0
79 144 219 0
195 -218 219 0
-90 -128 -220 0
75 -161 -220 0
-104 165 -220 0
156 166 -220 0
-79 156 220 0
105 -160 220 0
-100 196 220 0
141 145 -221 0
73 -213 -221 0
-68 218 -221 0
66 73 221 0
103 141 221 0
-161 184 221 0
-184 187 221 0
-159 219 221 0
-11 118 -222 0
-102 -202 -222 0
1 210 -222 0
87 214 -222 0
105 -136 222 0
130 -179 222 0
-145 -212 222 0
95 214 222 0
-186 -213 -223 0
59 -129 223 0
-67 -133 223 0
-76 -153 223 0
68 158 223 0
-95 -176 223 0
-147 188 223 0
125 -208 223 0
-92 217 223 0
-135 138 -224 0
76 143 224 0
71 155 224 0
-65 -175 224 0
85 179 224 0
-78 202 224 0
-159 -219 224 0
-64 -132 -225 0
175 -183 -225 0
-150 196 -225 0
107 -152 225 0
-8 -161 225 0
-153 -194 225 0
-96 -214 225 0
145 218 225 0
202 224 225 0
108 -121 -226 0
-150 204 -226 0
-61 -225 -226 0
79 -118 -227 0
-130 -178 -227 0
54 -96 227 0
145 -194 227 0
-118 200 227 0
64 145 -228 0
148 164 -228 0
-162 173 -228 0
-183 -194 -228 0
-105 125 228 0
-122 -151 228 0
129 -152 228 0
60 -98 -229 0
-59 -127 -229 0
142 146 229 0
-101 -197 229 0
-213 -221 229 0
82 -181 -230 0
124 -140 230 0
-73 -208 230 0
-145 -198 -231 0
128 -203 -231 0
-94 -113 231 0
60 115 231 0
-86 120 231 0
94 -130 231 0
147 157 231 0
-82 182 231 0
-22 -105 -232 0
-107 174 -232 0
77 187 -232 0
-161 -205 -232 0
-82 97 -233 0
-62 -158 -233 0
-109 176 -233 0
-153 226 -233 0
-92 -105 233 0
96 -178 233 0
163 -218 233 0
112 -221 233 0
-145 -170 -234 0
-164 -182 -234 0
-200 -204 -234 0
184 206 -234 0
139 208 -234 0
-146 155 234 0
-107 -202 234 0
70 80 -235 0
85 134 -235 0
77 -135 -235 0
46 -197 -235 0
78 217 -235 0
-117 -127 235 0
-133 139 235 0
17 158 235 0
-191 223 235 0
-94 104 -236 0
178 -192 -236 0
116 -170 236 0
173 180 236 0
111 193 236 0
109 -126 -237 0
-107 148 -237 0
121 153 -237 0
-29 -160 -237 0
77 183 -237 0
139 -208 -237 0
-81 -147 237 0
-64 190 237 0
-151 230 237 0
-194 230 237 0
-159 236 237 0
88 116 -238 0
-70 117 -238 0
-10 -191 -238 0
-86 204 -238 0
52 208 -238 0
65 -114 238 0
72 128 238 0
-122 -193 238 0
62 232 238 0
15 -75 -239 0
119 128 -239 0
110 144 -239 0
-152 -179 -239 0
-103 -203 -239 0
61 208 -239 0
-221 -222 -239 0
-51 109 239 0
173 -188 239 0
-126 -197 -240 0
-142 -201 -240 0
-98 -221 -240 0
73 -76 240 0
123 137 240 0
-128 144 240 0
97 171 240 0
105 -227 240 0
226 233 240 0
146 156 -241 0
116 -166 -241 0
141 -178 -241 0
112 160 241 0
164 -220 241 0
166 -223 241 0
107 164 -242 0
-45 -171 -242 0
-84 -190 -242 0
106 168 242 0
-122 -172 242 0
-119 -196 242 0
-45 198 242 0
-143 203 242 0
-178 219 242 0
-216 -221 242 0
-192 -226 242 0
-27 142 -243 0
87 148 -243 0
-81 185 -243 0
-66 187 -243 0
-110 212 -243 0
99 -219 -243 0
177 -227 -243 0
90 97 243 0
-71 111 243 0
-154 199 243 0
170 -206 243 0
-95 -232 243 0
-71 -166 -244 0
-110 -180 -244 0
-135 -205 -244 0
127 -211 -244 0
86 -218 -244 0
125 -220 -244 0
-187 221 -244 0
226 -228 -244 0
125 150 244 0
-140 203 244 0
122 220 244 0
66 -219 -245 0
-182 232 -245 0
-149 -228 245 0
177 228 245 0
82 90 -246 0
76 -126 -246 0
-186 199 -246 0
-129 -221 -246 0
34 176 246 0
-65 201 246 0
-33 207 246 0
-66 -218 246 0
-128 227 246 0
-127 -132 -247 0
-70 -175 -247 0
-56 -178 -247 0
204 -217 -247 0
-118 -235 -247 0
-110 114 247 0
110 -134 247 0
88 -146 247 0
-91 148 247 0
-100 192 247 0
-90 152 -248 0
-51 -110 248 0
66 -124 248 0
120 -156 248 0
-174 202 248 0
-162 226 248 0
99 -230 248 0
195 243 248 0
-81 -144 -249 0
-175 207 -249 0
120 -225 -249 0
96 225 -249 0
-89 -228 -249 0
154 -202 249 0
-144 216 249 0
-152 -228 249 0
-63 -234 249 0
-84 -104 -250 0
61 -136 -250 0
-202 -208 -250 0
86 130 250 0
168 -178 250 0
199 207 250 0
192 241 250 0
-77 -148 -251 0
92 -150 -251 0
-94 196 -251 0
76 83 251 0
80 -126 251 0
-96 198 251 0
-212 -227 251 0
-75 -229 251 0
63 232 251 0
-74 249 251 0
59 -90 -252 0
77 132 -252 0
-94 142 -252 0
114 142 -252 0
203 205 -252 0
-141 210 -252 0
-71 -94 252 0
-152 -158 252 0
94 168 252 0
150 190 252 0
-174 201 252 0
72 -107 -253 0
60 -142 -253 0
157 162 -253 0
165 -173 -253 0
53 -241 -253 0
63 252 -253 0
-65 166 253 0
153 -192 253 0
193 -203 253 0
233 234 253 0
97 235 253 0
-35 -237 253 0
239 250 253 0
111 122 -254 0
86 174 -254 0
-125 -226 -254 0
-60 -236 -254 0
-72 -110 254 0
-74 -168 254 0
83 194 254 0
-114 -209 254 0
-213 -239 254 0
89 245 254 0
-117 250 254 0
-106 -130 -255 0
-101 135 -255 0
87 136 -255 0
-31 140 -255 0
153 -175 -255 0
-158 -206 -255 0
-189 209 -255 0
-92 215 -255 0
112 217 -255 0
-77 223 -255 0
-71 -246 -255 0
10 -124 255 0
93 -196 255 0
146 -202 255 0
-82 -213 255 0
100 -222 255 0
93 -238 255 0
73 251 255 0
157 -177 -256 0
67 -193 -256 0
224 -226 -256 0
66 -125 256 0
-107 178 256 0
113 -216 256 0
149 246 256 0
60 -91 -257 0
-117 -233 -257 0
-88 -133 257 0
-72 -171 257 0
127 -178 257 0
-197 250 257 0
230 254 257 0
-171 190 -258 0
-114 231 -258 0
150 233 -258 0
-109 241 -258 0
215 -247 -258 0
185 -255 -258 0
59 80 258 0
-82 104 258 0
-77 -122 258 0
169 -172 258 0
114 -238 258 0
